1376.04
0 96 59 1 15 12 76 6 29 73 69 3 24 81 66 61 57 17 94 99 48 71 98 27 50 97 64 7 36 31 67 10 56 23 14 90 32 9 87 20 92 16 43 46 33 35 11 89 2 77 72 8 30 28 44 26 93 38 78 4 84 45 54 74 62 21 68 40 85 65 63 49 42 70 83 34 25 22 51 52 41 19 47 86 37 13 91 75 79 5 95 53 82 58 18 88 60 39 55 80
